
===== New CPLEX run =====
Instance: /home/yorig/tuner/mpils-tests/instances/miplib/medium-1/neos-3024952-loue.mps
Config: /scratch/yorig/mpils-results-grid-seconds-10-no-mip-start/medium-1/4proc/seed-4/9_neos-3024952-loue_seed-4_20260503_044340/expansion/config_param_CPXPARAM_MIP_Strategy_PresolveNode_3_iter_2.prm
========================

Selected objective sense:  MINIMIZE
Selected objective  name:  R3706
Selected RHS        name:  B
Selected bound      name:  BOUND
Version identifier: 22.1.2.0 | 2024-11-26 | 0edbb82fd
CPXPARAM_Threads                                 8
CPXPARAM_Parallel                                1
CPXPARAM_MIP_Cuts_Cliques                        2
CPXPARAM_MIP_Strategy_PresolveNode               3
CPXPARAM_MIP_Cuts_FlowCovers                     -1
CPXPARAM_MIP_Cuts_Implied                        -1
CPXPARAM_MIP_Cuts_GUBCovers                      2
CPXPARAM_MIP_Cuts_PathCut                        2
CPXPARAM_MIP_Cuts_MIRCut                         2
CPXPARAM_Emphasis_MIP                            1
CPXPARAM_TimeLimit                               10
CPXPARAM_MIP_Limits_ProbeTime                    60
Tried aggregator 2 times.
MIP Presolve eliminated 40 rows and 0 columns.
MIP Presolve modified 80 coefficients.
Aggregator did 32 substitutions.
Reduced MIP has 3633 rows, 3223 columns, and 15906 nonzeros.
Reduced MIP has 0 binaries, 3223 generals, 0 SOSs, and 0 indicators.
Presolve time = 0.01 sec. (7.72 ticks)
Tried aggregator 1 time.
Detecting symmetries...
Reduced MIP has 3633 rows, 3223 columns, and 15906 nonzeros.
Reduced MIP has 0 binaries, 3223 generals, 0 SOSs, and 0 indicators.
Presolve time = 0.01 sec. (8.53 ticks)
MIP emphasis: integer feasibility.
MIP search method: dynamic search.
Parallel mode: deterministic, using up to 8 threads.
Root relaxation solution time = 0.20 sec. (166.79 ticks)

        Nodes                                         Cuts/
   Node  Left     Objective  IInf  Best Integer    Best Bound    ItCnt     Gap

      0     0    22882.0000   397                  22882.0000     3901         
      0     0    23621.5017   727                   Cuts: 491     4422         
      0     0    23799.4952   886                   Cuts: 232     4569         
      0     0    23874.9587   882                   Cuts: 133     4628         
Detecting symmetries...
      0     2    23874.9587   882                  23874.9587     4628         
Elapsed time = 0.76 sec. (516.87 ticks, tree = 0.02 MB, solutions = 0)
    724   617    23991.1338   654                  23874.9587     9530         
   1488  1397    24064.2281   663                  23874.9587    18160         
   2255  2101    24373.1925   583                  23874.9587    25708         
   3016  2850    24876.8834   597                  23874.9587    35882         
   3805  3701    25329.1857   531                  23874.9587    49417         
   4652  4370    25265.5331   538                  23874.9587    57911         
   5514  5263    26564.4672   507                  23874.9587    70162         
   6415  6221    26949.7410   485                  23874.9587    81367         
   7358  7043    28931.4333   120                  23874.9587    89395         
  11170 10948    32023.7000   109                  23874.9587   126215         
Elapsed time = 5.24 sec. (3620.34 ticks, tree = 41.92 MB, solutions = 0)
* 12305+11963                        32135.0000    23874.9587            25.70%
  13981 12887    24491.5524   801    32135.0000    23874.9587   150433   25.70%
  15650 14583    26256.0571   499    32135.0000    23874.9587   170398   25.70%
* 15922+12144                        32085.0000    23874.9587            25.59%
* 16128+12207                        31959.0000    23874.9587            25.30%

Performing restart 1

Repeating presolve.
Tried aggregator 1 time.
MIP Presolve modified 16 coefficients.
Reduced MIP has 3633 rows, 3223 columns, and 15892 nonzeros.
Reduced MIP has 0 binaries, 3223 generals, 0 SOSs, and 0 indicators.
Presolve time = 0.00 sec. (6.35 ticks)
Tried aggregator 1 time.
Reduced MIP has 3633 rows, 3223 columns, and 15892 nonzeros.
Reduced MIP has 0 binaries, 3223 generals, 0 SOSs, and 0 indicators.
Presolve time = 0.01 sec. (8.82 ticks)
Represolve time = 0.02 sec. (23.82 ticks)
* 17093+    0                        31629.0000    23905.6505            24.42%
  17093     0    24181.9833   996    31629.0000     Cuts: 277   194559   23.54%

GUB cover cuts applied:  0
Clique cuts applied:  0
Mixed integer rounding cuts applied:  355
Flow path cuts applied:  0
Zero-half cuts applied:  67
Gomory fractional cuts applied:  58

Root node processing (before b&c):
  Real time             =    0.75 sec. (514.50 ticks)
Parallel b&c, 8 threads:
  Real time             =    9.34 sec. (6364.57 ticks)
  Sync time (average)   =    2.76 sec.
  Wait time (average)   =    0.00 sec.
                          ------------
Total (root+branch&cut) =   10.09 sec. (6879.06 ticks)
Gap: 23.54%
Upper bound: 31629
Lower bound: 24182
End of CPLEX run. Time: 10.097 seconds
